60

 0   0  10  10  20  30  40  40  14  22  32  32  32  28  28  28  28  22  22  28  28  28  36  45  45  32  30  32  32  36  36  50  45  45  45  41  41  41  45  45  57  54  51  54  58  58  58  58  64  64  63  63  60  60  60  61  67  67  67  72  
 0   0  10  10  20  30  40  40  14  22  32  32  32  28  28  28  28  22  22  28  28  28  36  45  45  32  30  32  32  36  36  50  45  45  45  41  41  41  45  45  57  54  51  54  58  58  58  58  64  64  63  63  60  60  60  61  67  67  67  72  
10  10   0   0  10  20  30  30  22  14  22  22  22  36  36  36  36  28  20  22  22  22  28  36  36  36  32  30  30  32  32  42  50  50  50  45  45  40  41  41  50  58  50  51  54  54  54  54  58  58  67  67  61  61  61  60  63  63  63  67  
10  10   0   0  10  20  30  30  22  14  22  22  22  36  36  36  36  28  20  22  22  22  28  36  36  36  32  30  30  32  32  42  50  50  50  45  45  40  41  41  50  58  50  51  54  54  54  54  58  58  67  67  61  61  61  60  63  63  63  67  
20  20  10  10   0  10  20  20  32  10  14  14  14  45  45  45  45  36  22  20  20  20  22  28  28  42  36  32  32  30  30  36  57  57  57  50  50  41  40  40  45  64  51  50  51  51  51  51  54  54  72  72  63  63  63  61  61  61  61  63  
30  30  20  20  10   0  10  10  41  14  10  10  10  54  54  54  54  45  28  22  22  22  20  22  22  50  42  36  36  32  32  32  64  64  64  57  57  45  41  41  41  71  54  51  50  50  50  50  51  51  78  78  67  67  67  63  60  60  60  61  
40  40  30  30  20  10   0   0  51  22  14  14  14  63  63  63  63  54  36  28  28  28  22  20  20  58  50  42  42  36  36  30  72  72  72  64  64  50  45  45  40  78  58  54  51  51  51  51  50  50  85  85  72  72  72  67  61  61  61  60  
40  40  30  30  20  10   0   0  51  22  14  14  14  63  63  63  63  54  36  28  28  28  22  20  20  58  50  42  42  36  36  30  72  72  72  64  64  50  45  45  40  78  58  54  51  51  51  51  50  50  85  85  72  72  72  67  61  61  61  60  
14  14  22  22  32  41  51  51   0  30  40  40  40  14  14  14  14  10  22  32  32  32  41  51  51  20  22  28  28  36  36  54  32  32  32  30  30  36  42  42  58  41  45  50  57  57  57  57  64  64  51  51  51  51  51  54  64  64  64  71  
22  22  14  14  10  14  22  22  30   0  10  10  10  41  41  41  41  32  14  10  10  10  14  22  22  36  28  22  22  20  20  28  50  50  50  42  42  32  30  30  36  57  41  40  41  41  41  41  45  45  64  64  54  54  54  51  51  51  51  54  
32  32  22  22  14  10  14  14  40  10   0   0   0  51  51  51  51  41  22  14  14  14  10  14  14  45  36  28  28  22  22  22  58  58  58  50  50  36  32  32  32  64  45  41  40  40  40  40  41  41  71  71  58  58  58  54  50  50  50  51  
32  32  22  22  14  10  14  14  40  10   0   0   0  51  51  51  51  41  22  14  14  14  10  14  14  45  36  28  28  22  22  22  58  58  58  50  50  36  32  32  32  64  45  41  40  40  40  40  41  41  71  71  58  58  58  54  50  50  50  51  
32  32  22  22  14  10  14  14  40  10   0   0   0  51  51  51  51  41  22  14  14  14  10  14  14  45  36  28  28  22  22  22  58  58  58  50  50  36  32  32  32  64  45  41  40  40  40  40  41  41  71  71  58  58  58  54  50  50  50  51  
28  28  36  36  45  54  63  63  14  41  51  51  51   0   0   0   0  10  30  40  40  40  50  60  60  14  22  32  32  41  41  61  20  20  20  22  22  36  45  45  63  30  42  50  58  58  58  58  67  67  40  40  45  45  45  50  64  64  64  72  
28  28  36  36  45  54  63  63  14  41  51  51  51   0   0   0   0  10  30  40  40  40  50  60  60  14  22  32  32  41  41  61  20  20  20  22  22  36  45  45  63  30  42  50  58  58  58  58  67  67  40  40  45  45  45  50  64  64  64  72  
28  28  36  36  45  54  63  63  14  41  51  51  51   0   0   0   0  10  30  40  40  40  50  60  60  14  22  32  32  41  41  61  20  20  20  22  22  36  45  45  63  30  42  50  58  58  58  58  67  67  40  40  45  45  45  50  64  64  64  72  
28  28  36  36  45  54  63  63  14  41  51  51  51   0   0   0   0  10  30  40  40  40  50  60  60  14  22  32  32  41  41  61  20  20  20  22  22  36  45  45  63  30  42  50  58  58  58  58  67  67  40  40  45  45  45  50  64  64  64  72  
22  22  28  28  36  45  54  54  10  32  41  41  41  10  10  10  10   0  20  30  30  30  40  50  50  10  14  22  22  32  32  51  22  22  22  20  20  28  36  36  54  32  36  42  50  50  50  50  58  58  41  41  41  41  41  45  57  57  57  64  
22  22  20  20  22  28  36  36  22  14  22  22  22  30  30  30  30  20   0  10  10  10  20  30  30  22  14  10  10  14  14  32  36  36  36  28  28  20  22  22  36  42  30  32  36  36  36  36  42  42  50  50  41  41  41  40  45  45  45  50  
28  28  22  22  20  22  28  28  32  10  14  14  14  40  40  40  40  30  10   0   0   0  10  20  20  32  22  14  14  10  10  22  45  45  45  36  36  22  20  20  28  50  32  30  32  32  32  32  36  36  57  57  45  45  45  41  41  41  41  45  
28  28  22  22  20  22  28  28  32  10  14  14  14  40  40  40  40  30  10   0   0   0  10  20  20  32  22  14  14  10  10  22  45  45  45  36  36  22  20  20  28  50  32  30  32  32  32  32  36  36  57  57  45  45  45  41  41  41  41  45  
28  28  22  22  20  22  28  28  32  10  14  14  14  40  40  40  40  30  10   0   0   0  10  20  20  32  22  14  14  10  10  22  45  45  45  36  36  22  20  20  28  50  32  30  32  32  32  32  36  36  57  57  45  45  45  41  41  41  41  45  
36  36  28  28  22  20  22  22  41  14  10  10  10  50  50  50  50  40  20  10  10  10   0  10  10  41  32  22  22  14  14  14  54  54  54  45  45  28  22  22  22  58  36  32  30  30  30  30  32  32  64  64  50  50  50  45  40  40  40  41  
45  45  36  36  28  22  20  20  51  22  14  14  14  60  60  60  60  50  30  20  20  20  10   0   0  51  41  32  32  22  22  10  63  63  63  54  54  36  28  28  20  67  42  36  32  32  32  32  30  30  72  72  57  57  57  50  41  41  41  40  
45  45  36  36  28  22  20  20  51  22  14  14  14  60  60  60  60  50  30  20  20  20  10   0   0  51  41  32  32  22  22  10  63  63  63  54  54  36  28  28  20  67  42  36  32  32  32  32  30  30  72  72  57  57  57  50  41  41  41  40  
32  32  36  36  42  50  58  58  20  36  45  45  45  14  14  14  14  10  22  32  32  32  41  51  51   0  10  20  20  30  30  50  14  14  14  10  10  22  32  32  51  22  28  36  45  45  45  45  54  54  32  32  32  32  32  36  50  50  50  58  
30  30  32  32  36  42  50  50  22  28  36  36  36  22  22  22  22  14  14  22  22  22  32  41  41  10   0  10  10  20  20  40  22  22  22  14  14  14  22  22  41  28  22  28  36  36  36  36  45  45  36  36  30  30  30  32  42  42  42  50  
32  32  30  30  32  36  42  42  28  22  28  28  28  32  32  32  32  22  10  14  14  14  22  32  32  20  10   0   0  10  10  30  32  32  32  22  22  10  14  14  32  36  20  22  28  28  28  28  36  36  42  42  32  32  32  30  36  36  36  42  
32  32  30  30  32  36  42  42  28  22  28  28  28  32  32  32  32  22  10  14  14  14  22  32  32  20  10   0   0  10  10  30  32  32  32  22  22  10  14  14  32  36  20  22  28  28  28  28  36  36  42  42  32  32  32  30  36  36  36  42  
36  36  32  32  30  32  36  36  36  20  22  22  22  41  41  41  41  32  14  10  10  10  14  22  22  30  20  10  10   0   0  20  41  41  41  32  32  14  10  10  22  45  22  20  22  22  22  22  28  28  50  50  36  36  36  32  32  32  32  36  
36  36  32  32  30  32  36  36  36  20  22  22  22  41  41  41  41  32  14  10  10  10  14  22  22  30  20  10  10   0   0  20  41  41  41  32  32  14  10  10  22  45  22  20  22  22  22  22  28  28  50  50  36  36  36  32  32  32  32  36  
50  50  42  42  36  32  30  30  54  28  22  22  22  61  61  61  61  51  32  22  22  22  14  10  10  50  40  30  30  20  20   0  61  61  61  51  51  32  22  22  10  63  36  28  22  22  22  22  20  20  67  67  50  50  50  42  32  32  32  30  
45  45  50  50  57  64  72  72  32  50  58  58  58  20  20  20  20  22  36  45  45  45  54  63  63  14  22  32  32  41  41  61   0   0   0  10  10  30  40  40  60  10  32  41  51  51  51  51  61  61  20  20  28  28  28  36  54  54  54  63  
45  45  50  50  57  64  72  72  32  50  58  58  58  20  20  20  20  22  36  45  45  45  54  63  63  14  22  32  32  41  41  61   0   0   0  10  10  30  40  40  60  10  32  41  51  51  51  51  61  61  20  20  28  28  28  36  54  54  54  63  
45  45  50  50  57  64  72  72  32  50  58  58  58  20  20  20  20  22  36  45  45  45  54  63  63  14  22  32  32  41  41  61   0   0   0  10  10  30  40  40  60  10  32  41  51  51  51  51  61  61  20  20  28  28  28  36  54  54  54  63  
41  41  45  45  50  57  64  64  30  42  50  50  50  22  22  22  22  20  28  36  36  36  45  54  54  10  14  22  22  32  32  51  10  10  10   0   0  20  30  30  50  14  22  32  41  41  41  41  51  51  22  22  22  22  22  28  45  45  45  54  
41  41  45  45  50  57  64  64  30  42  50  50  50  22  22  22  22  20  28  36  36  36  45  54  54  10  14  22  22  32  32  51  10  10  10   0   0  20  30  30  50  14  22  32  41  41  41  41  51  51  22  22  22  22  22  28  45  45  45  54  
41  41  40  40  41  45  50  50  36  32  36  36  36  36  36  36  36  28  20  22  22  22  28  36  36  22  14  10  10  14  14  32  30  30  30  20  20   0  10  10  30  32  10  14  22  22  22  22  32  32  36  36  22  22  22  20  28  28  28  36  
45  45  41  41  40  41  45  45  42  30  32  32  32  45  45  45  45  36  22  20  20  20  22  28  28  32  22  14  14  10  10  22  40  40  40  30  30  10   0   0  20  41  14  10  14  14  14  14  22  22  45  45  28  28  28  22  22  22  22  28  
45  45  41  41  40  41  45  45  42  30  32  32  32  45  45  45  45  36  22  20  20  20  22  28  28  32  22  14  14  10  10  22  40  40  40  30  30  10   0   0  20  41  14  10  14  14  14  14  22  22  45  45  28  28  28  22  22  22  22  28  
57  57  50  50  45  41  40  40  58  36  32  32  32  63  63  63  63  54  36  28  28  28  22  20  20  51  41  32  32  22  22  10  60  60  60  50  50  30  20  20   0  61  32  22  14  14  14  14  10  10  63  63  45  45  45  36  22  22  22  20  
54  54  58  58  64  71  78  78  41  57  64  64  64  30  30  30  30  32  42  50  50  50  58  67  67  22  28  36  36  45  45  63  10  10  10  14  14  32  41  41  61   0  30  40  50  50  50  50  60  60  10  10  22  22  22  32  51  51  51  61  
51  51  50  50  51  54  58  58  45  41  45  45  45  42  42  42  42  36  30  32  32  32  36  42  42  28  22  20  20  22  22  36  32  32  32  22  22  10  14  14  32  30   0  10  20  20  20  20  30  30  32  32  14  14  14  10  22  22  22  32  
54  54  51  51  50  51  54  54  50  40  41  41  41  50  50  50  50  42  32  30  30  30  32  36  36  36  28  22  22  20  20  28  41  41  41  32  32  14  10  10  22  40  10   0  10  10  10  10  20  20  41  41  22  22  22  14  14  14  14  22  
58  58  54  54  51  50  51  51  57  41  40  40  40  58  58  58  58  50  36  32  32  32  30  32  32  45  36  28  28  22  22  22  51  51  51  41  41  22  14  14  14  50  20  10   0   0   0   0  10  10  51  51  32  32  32  22  10  10  10  14  
58  58  54  54  51  50  51  51  57  41  40  40  40  58  58  58  58  50  36  32  32  32  30  32  32  45  36  28  28  22  22  22  51  51  51  41  41  22  14  14  14  50  20  10   0   0   0   0  10  10  51  51  32  32  32  22  10  10  10  14  
58  58  54  54  51  50  51  51  57  41  40  40  40  58  58  58  58  50  36  32  32  32  30  32  32  45  36  28  28  22  22  22  51  51  51  41  41  22  14  14  14  50  20  10   0   0   0   0  10  10  51  51  32  32  32  22  10  10  10  14  
58  58  54  54  51  50  51  51  57  41  40  40  40  58  58  58  58  50  36  32  32  32  30  32  32  45  36  28  28  22  22  22  51  51  51  41  41  22  14  14  14  50  20  10   0   0   0   0  10  10  51  51  32  32  32  22  10  10  10  14  
64  64  58  58  54  51  50  50  64  45  41  41  41  67  67  67  67  58  42  36  36  36  32  30  30  54  45  36  36  28  28  20  61  61  61  51  51  32  22  22  10  60  30  20  10  10  10  10   0   0  61  61  41  41  41  32  14  14  14  10  
64  64  58  58  54  51  50  50  64  45  41  41  41  67  67  67  67  58  42  36  36  36  32  30  30  54  45  36  36  28  28  20  61  61  61  51  51  32  22  22  10  60  30  20  10  10  10  10   0   0  61  61  41  41  41  32  14  14  14  10  
63  63  67  67  72  78  85  85  51  64  71  71  71  40  40  40  40  41  50  57  57  57  64  72  72  32  36  42  42  50  50  67  20  20  20  22  22  36  45  45  63  10  32  41  51  51  51  51  61  61   0   0  20  20  20  30  50  50  50  60  
63  63  67  67  72  78  85  85  51  64  71  71  71  40  40  40  40  41  50  57  57  57  64  72  72  32  36  42  42  50  50  67  20  20  20  22  22  36  45  45  63  10  32  41  51  51  51  51  61  61   0   0  20  20  20  30  50  50  50  60  
60  60  61  61  63  67  72  72  51  54  58  58  58  45  45  45  45  41  41  45  45  45  50  57  57  32  30  32  32  36  36  50  28  28  28  22  22  22  28  28  45  22  14  22  32  32  32  32  41  41  20  20   0   0   0  10  30  30  30  40  
60  60  61  61  63  67  72  72  51  54  58  58  58  45  45  45  45  41  41  45  45  45  50  57  57  32  30  32  32  36  36  50  28  28  28  22  22  22  28  28  45  22  14  22  32  32  32  32  41  41  20  20   0   0   0  10  30  30  30  40  
60  60  61  61  63  67  72  72  51  54  58  58  58  45  45  45  45  41  41  45  45  45  50  57  57  32  30  32  32  36  36  50  28  28  28  22  22  22  28  28  45  22  14  22  32  32  32  32  41  41  20  20   0   0   0  10  30  30  30  40  
61  61  60  60  61  63  67  67  54  51  54  54  54  50  50  50  50  45  40  41  41  41  45  50  50  36  32  30  30  32  32  42  36  36  36  28  28  20  22  22  36  32  10  14  22  22  22  22  32  32  30  30  10  10  10   0  20  20  20  30  
67  67  63  63  61  60  61  61  64  51  50  50  50  64  64  64  64  57  45  41  41  41  40  41  41  50  42  36  36  32  32  32  54  54  54  45  45  28  22  22  22  51  22  14  10  10  10  10  14  14  50  50  30  30  30  20   0   0   0  10  
67  67  63  63  61  60  61  61  64  51  50  50  50  64  64  64  64  57  45  41  41  41  40  41  41  50  42  36  36  32  32  32  54  54  54  45  45  28  22  22  22  51  22  14  10  10  10  10  14  14  50  50  30  30  30  20   0   0   0  10  
67  67  63  63  61  60  61  61  64  51  50  50  50  64  64  64  64  57  45  41  41  41  40  41  41  50  42  36  36  32  32  32  54  54  54  45  45  28  22  22  22  51  22  14  10  10  10  10  14  14  50  50  30  30  30  20   0   0   0  10  
72  72  67  67  63  61  60  60  71  54  51  51  51  72  72  72  72  64  50  45  45  45  41  40  40  58  50  42  42  36  36  30  63  63  63  54  54  36  28  28  20  61  32  22  14  14  14  14  10  10  60  60  40  40  40  30  10  10  10   0  

 0  39   3  48  37  32  48  31  41  41  37  41  32  37  32  40  40  41  32  39  24  24  32  39  16  29  32  38  47  23  31  32  41  32  27  37  39  24  40  32  32  24  41  25  25  31  20  41  31  25  33  31  39  39  31  29  33  24  34  32  
 0   0  48  34  39  32  43  31  18  37  27  34  15  25  24  41  42  23  32  29  30  22  38  47  38  34  32  25  37  41  18  42  20  32  25  39  40  42  46  37  32  38  23  22  47  24  42  13  31  28  41  39  31  20  31  32  35  37  34  38  
 0   0   0  41  30  32  51  32  43  40  37  39  39  44  32  45  31  48  23  39  35  24  30  32  10  27  32  32  49  21  33  32  38  37  34  32  44  19  33  32  37  18  41  26  25  39  20  32  25  25  38  30  42  60  23  29  33  25  32  27  
 0   0   0   0  33  32  18  42  30  26  40  25  47  39  22  46  32  13  32  25  57  40  26  18  37  32  25  25  25  41  36  34  23  21  39  28  25  14  28  11  32  42  23  38  39  49  39  13  24  43  35  34  17  40  40  32  39  41  37  45  
 0   0   0   0   0  47  30  32  37  24  24  27  29  31  27  12  32  32  32  37  33  29  32  25  40  30  32  13  44  39  44  38  39  33  37  20  32  40  25  40  37  25  32  24  39  31  37  32  52  34  25  32  31  31  29  35  40  34  35  32  
 0   0   0   0   0   0  32  32  24  32  32  32  39  40  32  39  32  32  32  32  25  32  32  32  32  39  32  39  25  25  32  39  25  39  39  32  32  32  32  32  32  32  32  32  25  40  32  32  25  25  39  32  39  32  32  24  24  25  32  32  
 0   0   0   0   0   0   0  32  47  24  27  29  39  40  40  24  33  31  41  23  43  35  34  15  40  30  32  23  16  34  43  32  33  32  39  23  22  41  14  31  32  32  31  47  39  39  39  41  34  39  31  28   0  23  37  40  23  29  31  33  
 0   0   0   0   0   0   0   0  29  43  35  33  32  32  42  17  39  42  32  40  22  32  42  24  25  33  42  33  32  32  32  22  32  35  32  32  32  43  22  41  40  21  40  31  32  21  32  34  31  32  25  33  31  32  32  40  32  32  38  33  
 0   0   0   0   0   0   0   0   0  32  45  27  30  38  29  40  32  28  32  34  20  37  32  37  36  32  32  44  32  41  22  37  15  40  25  39  45  27  42  27  42  39  23  23  27  33  32  23  32  27  32  38  47  25  37  24  27  26  27  46  
 0   0   0   0   0   0   0   0   0   0  24  31  24  32  22  22  24  22  32  32  42  32  26  32  51  31  22  31  24  32  44  50  32  40  32  32  32  37  30  30  32  43  32  33  32  43  32  22  41  36  20  31  33  24  24  40  24  32  49  27  
 0   0   0   0   0   0   0   0   0   0   0  37  24  27  32  16  32  32  32  27  24  19  41  28  40  37  32  13  37  32  32  40  32  37  37  27  27  40  32  45  32  32  32  24  37  41  37  32  40  32  37  32  44  29  10  27  27  42  40  32  
 0   0   0   0   0   0   0   0   0   0   0   0  32  32  27  32  32  32  32  30  27  37  32  25  31  30  32  31  25  32  25  32  32  32  32  32  25  32  32  32  32  40  32  40  39  33  39  32  33  39  39  24  38  25  38  32  44  26  30  31  
 0   0   0   0   0   0   0   0   0   0   0   0   0  20  51  32  33  42  32  32  34  14  42  29  53  34  36  32  24  39  20  48  39  33   5  48  33  50  39  30  36  39  32  24  39  16  33  22  42  34  25  32  30   7  34  45  18  29  55  32  
 0   0   0   0   0   0   0   0   0   0   0   0   0   0  32  37  32  31  32  32  25  32  32  39  32  38  32  34  26  32  20  27  32  32  30  34  32  32  39  33  27  39  33  32  32  17  37  32  27  37  32  32  39  25  32  35  45  32  37  32  
 0   0   0   0   0   0   0   0   0   0   0   0   0   0   0  37  41  12  32  34  32  37  22  50  23  23  22  17  47  32  29  32  29  32  41  23  39  22  45  37  23  42  32  32  47  51  41  22  32  42  37  29  40  37  27  23  59  32  32  32  
 0   0   0   0   0   0   0   0   0   0   0   0   0   0   0   0  14  37  32  40  19  42  36  29  49  25  42  30  41  39  54  18  44  25  25  32  12  53  10  47  40  22  40  32  34  22  22  44  57  38  13  32  35  34  24  48  19  59  33  23  
 0   0   0   0   0   0   0   0   0   0   0   0   0   0   0   0   0  32  23  32  39  50  22  32  49  41  32  42  24  32  40  22  32  32  23  41  13  30  24  25  41  32  32  40  22  23  13  33  32  32  31  32  43  51  23  49  15  51  25  15  
 0   0   0   0   0   0   0   0   0   0   0   0   0   0   0   0   0   0  32  32  47  32  24  42  46  33  22  20  39  43  37  32  26  27  32  30  27  27  42  33  27  42  24  23  42  42  32  13  39  42  27  41  32  27  22  32  42  48  32  36  
 0   0   0   0   0   0   0   0   0   0   0   0   0   0   0   0   0   0   0  32  41  32  32  32  32  32  32  32  32  32  32  32  32  32  32  32  32  32  32  32  32  32  32  32  32  32  32  23  32  32  32  32  41  41  23  32  32  41  32  23  
 0   0   0   0   0   0   0   0   0   0   0   0   0   0   0   0   0   0   0   0  37  27  32  36  40  32  32  32  25  32  14  32  21  32  32  32  28  32  35  40  24  39  24  39  47  32  39  48  40  39  39  22  22  25  27  24  37  37  24  32  
 0   0   0   0   0   0   0   0   0   0   0   0   0   0   0   0   0   0   0   0   0  31  32  44  27  39  42  51  38  25  12  27  20  52  32  39  22  27  37  55  37  29  32  16  20  15  22  61  28  25  57  32  68  28  38  24  45  21  30  54  
 0   0   0   0   0   0   0   0   0   0   0   0   0   0   0   0   0   0   0   0   0   0  42  32  32  32  32  22  40  32  24  50  32  40  32  32  42  42  40  40  32  32  32  16  42  32  42  22  40  32  40  32  33  14  19  24  35  27  40  40  
 0   0   0   0   0   0   0   0   0   0   0   0   0   0   0   0   0   0   0   0   0   0   0  41  28  32  22  53  34  30  28  32  34  32  32  34  22  12  46  22  32  42  32  32  22  33  22  32  30  28  36  32  33  42  41  32  32  40  42  28  
 0   0   0   0   0   0   0   0   0   0   0   0   0   0   0   0   0   0   0   0   0   0   0   0  24  32  32  31  10  32  35  42  35  32  39  25  27  32  22   9  40  32  40  39  24  48  39  24  32  29  34  28  31  27  33  40  26  27  50  32  
 0   0   0   0   0   0   0   0   0   0   0   0   0   0   0   0   0   0   0   0   0   0   0   0   0  22  28  31  40  23  15  24  36  29  45  23  46  10  44  16  36  33  49  42  32  42  41  33  20  28  49  22  33  45  40  19  49  18  31  31  
 0   0   0   0   0   0   0   0   0   0   0   0   0   0   0   0   0   0   0   0   0   0   0   0   0   0  32  29  40  39  32  25  39  25  29  28  41  32  32  31  23  33  31  33  39  42  36  32  40  39  25  31  26  32  33  28  41  38  30  31  
 0   0   0   0   0   0   0   0   0   0   0   0   0   0   0   0   0   0   0   0   0   0   0   0   0   0   0  32  32  32  32  42  32  35  36  29  32  22  45  25  32  42  32  32  32  42  32  22  32  32  32  32  32  32  32  28  32  32  39  32  
 0   0   0   0   0   0   0   0   0   0   0   0   0   0   0   0   0   0   0   0   0   0   0   0   0   0   0   0  52  41  39  25  37  25  37  18  37  41  25  47  32  26  32  33  64  49  47  22  42  49  30  31  18  34  13  27  42  36  21  31  
 0   0   0   0   0   0   0   0   0   0   0   0   0   0   0   0   0   0   0   0   0   0   0   0   0   0   0   0   0  27  28  44  23  39  39  30  30  40  24  18  27  39  33  47  17  32  39  32  22  27  33  25  31  20  42  40  26  22  47  24  
 0   0   0   0   0   0   0   0   0   0   0   0   0   0   0   0   0   0   0   0   0   0   0   0   0   0   0   0   0   0  32  39  36  39  39  34  32  32  32  32  32  32  41  41  25  32  32  41  23  25  39  23  39  32  32  32  32  14  32  23  
 0   0   0   0   0   0   0   0   0   0   0   0   0   0   0   0   0   0   0   0   0   0   0   0   0   0   0   0   0   0   0  27  16  37  25  39  33  19  54  32  32  46  32  31  47  25  39  40  30  40  56  22  42  23  32  24  55  27  37  41  
 0   0   0   0   0   0   0   0   0   0   0   0   0   0   0   0   0   0   0   0   0   0   0   0   0   0   0   0   0   0   0   0  39  17  25  32  22  24  22  44  27  22  32  40  39  22  22  52  26  54  25  32  27  50  30  32  47  49   9  32  
 0   0   0   0   0   0   0   0   0   0   0   0   0   0   0   0   0   0   0   0   0   0   0   0   0   0   0   0   0   0   0   0   0  44  39  30  40  27  35  32  37  32  23  23  33  32  32  31  30  25  44  38  34  37  32  32  35  31  32  46  
 0   0   0   0   0   0   0   0   0   0   0   0   0   0   0   0   0   0   0   0   0   0   0   0   0   0   0   0   0   0   0   0   0   0  25  35  27  29  29  21  27  32  32  40  39  32  32  32  36  39  20  32  17  35  40  32  32  44  27  27  
 0   0   0   0   0   0   0   0   0   0   0   0   0   0   0   0   0   0   0   0   0   0   0   0   0   0   0   0   0   0   0   0   0   0   0  53  23  32  39  32  41  39  32  32  39  16  18  32  39  39  25  32  32  25  32  50  23  39  32  32  
 0   0   0   0   0   0   0   0   0   0   0   0   0   0   0   0   0   0   0   0   0   0   0   0   0   0   0   0   0   0   0   0   0   0   0   0  41  32  28  35  23  25  32  32  32  48  46  32  34  32  32  32  25  39  32  18  41  34  29  32  
 0   0   0   0   0   0   0   0   0   0   0   0   0   0   0   0   0   0   0   0   0   0   0   0   0   0   0   0   0   0   0   0   0   0   0   0   0  27  29  37  36  39  32  39  34  23  20  42  37  39  39  28  39  35  32  41  27  52  32  27  
 0   0   0   0   0   0   0   0   0   0   0   0   0   0   0   0   0   0   0   0   0   0   0   0   0   0   0   0   0   0   0   0   0   0   0   0   0   0  50  14  37  43  32  33  22  43  22  32  20  32  45  31  43  55  39  24  40  38  34  44  
 0   0   0   0   0   0   0   0   0   0   0   0   0   0   0   0   0   0   0   0   0   0   0   0   0   0   0   0   0   0   0   0   0   0   0   0   0   0   0  39  32  15  32  40  32  29  32  42  32  36  20  35  14  39  32  40  21  32  25  28  
 0   0   0   0   0   0   0   0   0   0   0   0   0   0   0   0   0   0   0   0   0   0   0   0   0   0   0   0   0   0   0   0   0   0   0   0   0   0   0   0  40  42  39  40  17  42  32  14  24  22  34  32  24  35  50  40  22  27  48  32  
 0   0   0   0   0   0   0   0   0   0   0   0   0   0   0   0   0   0   0   0   0   0   0   0   0   0   0   0   0   0   0   0   0   0   0   0   0   0   0   0   0  32  24  32  32  41  41  40  32  37  27  32  32  27  32  15  46  37  29  27  
 0   0   0   0   0   0   0   0   0   0   0   0   0   0   0   0   0   0   0   0   0   0   0   0   0   0   0   0   0   0   0   0   0   0   0   0   0   0   0   0   0   0  32  24  25  28  25  42  31  25  25  40  24  46  32  32  25  32  23  33  
 0   0   0   0   0   0   0   0   0   0   0   0   0   0   0   0   0   0   0   0   0   0   0   0   0   0   0   0   0   0   0   0   0   0   0   0   0   0   0   0   0   0   0  23  32  32  32  31  32  32  32  41  32  32  32  24  32  41  24  41  
 0   0   0   0   0   0   0   0   0   0   0   0   0   0   0   0   0   0   0   0   0   0   0   0   0   0   0   0   0   0   0   0   0   0   0   0   0   0   0   0   0   0   0   0  25  31  25  23  39  25  33  49  47  31  24  24  33  41  41  50  
 0   0   0   0   0   0   0   0   0   0   0   0   0   0   0   0   0   0   0   0   0   0   0   0   0   0   0   0   0   0   0   0   0   0   0   0   0   0   0   0   0   0   0   0   0  32  15  34  17   8  27  39  57  44  42  32  15  30  42  32  
 0   0   0   0   0   0   0   0   0   0   0   0   0   0   0   0   0   0   0   0   0   0   0   0   0   0   0   0   0   0   0   0   0   0   0   0   0   0   0   0   0   0   0   0   0   0  23  42  31  32  32  33  29  25  41  49  31  32  23  33  
 0   0   0   0   0   0   0   0   0   0   0   0   0   0   0   0   0   0   0   0   0   0   0   0   0   0   0   0   0   0   0   0   0   0   0   0   0   0   0   0   0   0   0   0   0   0   0  42  32  25  25  39  42  49  32  46  16  42  32  32  
 0   0   0   0   0   0   0   0   0   0   0   0   0   0   0   0   0   0   0   0   0   0   0   0   0   0   0   0   0   0   0   0   0   0   0   0   0   0   0   0   0   0   0   0   0   0   0   0  24  32  32  41  39  31  23  40  32  40  50  32  
 0   0   0   0   0   0   0   0   0   0   0   0   0   0   0   0   0   0   0   0   0   0   0   0   0   0   0   0   0   0   0   0   0   0   0   0   0   0   0   0   0   0   0   0   0   0   0   0   0  30  44  33  38  45  40  32  37  18  30  38  
 0   0   0   0   0   0   0   0   0   0   0   0   0   0   0   0   0   0   0   0   0   0   0   0   0   0   0   0   0   0   0   0   0   0   0   0   0   0   0   0   0   0   0   0   0   0   0   0   0   0  36  39  39  39  42  32  10  25  37  28  
 0   0   0   0   0   0   0   0   0   0   0   0   0   0   0   0   0   0   0   0   0   0   0   0   0   0   0   0   0   0   0   0   0   0   0   0   0   0   0   0   0   0   0   0   0   0   0   0   0   0   0  39  17  29  32  40  17  39  39  23  
 0   0   0   0   0   0   0   0   0   0   0   0   0   0   0   0   0   0   0   0   0   0   0   0   0   0   0   0   0   0   0   0   0   0   0   0   0   0   0   0   0   0   0   0   0   0   0   0   0   0   0   0  36  25  32  32  42  23  31  22  
 0   0   0   0   0   0   0   0   0   0   0   0   0   0   0   0   0   0   0   0   0   0   0   0   0   0   0   0   0   0   0   0   0   0   0   0   0   0   0   0   0   0   0   0   0   0   0   0   0   0   0   0   0  28  53  40  16  25  25  34  
 0   0   0   0   0   0   0   0   0   0   0   0   0   0   0   0   0   0   0   0   0   0   0   0   0   0   0   0   0   0   0   0   0   0   0   0   0   0   0   0   0   0   0   0   0   0   0   0   0   0   0   0   0   0  33  32  39  13  40  36  
 0   0   0   0   0   0   0   0   0   0   0   0   0   0   0   0   0   0   0   0   0   0   0   0   0   0   0   0   0   0   0   0   0   0   0   0   0   0   0   0   0   0   0   0   0   0   0   0   0   0   0   0   0   0   0  32  37  47  31  23  
 0   0   0   0   0   0   0   0   0   0   0   0   0   0   0   0   0   0   0   0   0   0   0   0   0   0   0   0   0   0   0   0   0   0   0   0   0   0   0   0   0   0   0   0   0   0   0   0   0   0   0   0   0   0   0   0  41  32  24  40  
 0   0   0   0   0   0   0   0   0   0   0   0   0   0   0   0   0   0   0   0   0   0   0   0   0   0   0   0   0   0   0   0   0   0   0   0   0   0   0   0   0   0   0   0   0   0   0   0   0   0   0   0   0   0   0   0   0  37  37  24  
 0   0   0   0   0   0   0   0   0   0   0   0   0   0   0   0   0   0   0   0   0   0   0   0   0   0   0   0   0   0   0   0   0   0   0   0   0   0   0   0   0   0   0   0   0   0   0   0   0   0   0   0   0   0   0   0   0   0  31  37  
 0   0   0   0   0   0   0   0   0   0   0   0   0   0   0   0   0   0   0   0   0   0   0   0   0   0   0   0   0   0   0   0   0   0   0   0   0   0   0   0   0   0   0   0   0   0   0   0   0   0   0   0   0   0   0   0   0   0   0  31  
 0   0   0   0   0   0   0   0   0   0   0   0   0   0   0   0   0   0   0   0   0   0   0   0   0   0   0   0   0   0   0   0   0   0   0   0   0   0   0   0   0   0   0   0   0   0   0   0   0   0   0   0   0   0   0   0   0   0   0   0  
